amountOfEmployees = 30;
horizonLength = 28;
amountOfShifts = 4;

shiftsPerDay = [|9,11,3,0,
|10,4,4,0,
|10,5,4,0,
|3,4,1,0,
|2,5,2,0,
|5,1,3,0,
|7,7,3,0,
|4,5,2,0,
|5,4,2,0,
|2,4,6,0,
|8,2,6,0,
|8,9,3,0,
|4,4,2,0,
|10,7,3,0,
|5,4,2,0,
|5,4,2,0,
|6,5,2,0,
|7,9,3,0,
|11,9,3,0,
|3,3,6,0,
|3,1,5,0,
|3,3,6,0,
|5,3,1,0,
|8,8,3,0,
|12,5,5,0,
|7,10,3,0,
|10,4,4,0,
|10,4,5,0,
|];

preferences = array3d(1..30,1..28,1..4,[3,2,1,2,3,2,2,2,2,2,2,2,2,2,2,2,3,2,1,2,3,2,2,2,3,2,2,2,3,2,2,2,3,2,2,2,2,2,2,2,3,2,1,2,3,2,2,2,3,2,1,2,3,2,1,2,3,2,2,2,3,2,2,2,2,2,2,2,2,2,2,2,3,2,1,2,3,2,2,2,2,2,2,2,3,2,1,2,3,2,1,2,3,2,2,2,3,2,1,2,3,2,1,2,2,2,2,2,3,2,2,2,1,1,3,1,2,1,1,1,2,3,3,2,2,3,3,2,1,1,3,1,2,1,1,1,2,1,1,1,2,1,1,1,2,1,1,1,2,3,3,2,1,1,3,1,2,1,1,1,1,1,3,1,1,1,3,1,2,1,1,1,2,1,1,1,2,3,3,2,2,3,3,2,1,1,3,1,2,1,1,1,2,3,3,2,1,1,3,1,1,1,3,1,2,1,1,1,1,1,3,1,1,1,3,1,2,3,3,2,2,1,1,1,4,1,4,1,2,1,1,1,4,2,2,4,4,2,2,4,4,1,4,1,2,1,1,1,2,1,1,1,2,1,1,1,2,1,1,1,4,2,2,4,4,1,4,1,2,1,1,1,4,1,4,1,4,1,4,1,2,1,1,1,2,1,1,1,4,2,2,4,4,2,2,4,4,1,4,1,2,1,1,1,4,2,2,4,4,1,4,1,4,1,4,1,2,1,1,1,4,1,4,1,4,1,4,1,4,2,2,4,2,1,1,1,4,4,4,4,1,4,4,4,1,1,1,4,1,1,1,4,4,4,4,4,1,4,4,4,1,4,4,4,1,4,4,4,1,4,4,4,1,1,1,4,4,4,4,4,1,4,4,4,4,4,4,4,4,4,4,4,1,4,4,4,1,4,4,4,1,1,1,4,1,1,1,4,4,4,4,4,1,4,4,4,1,1,1,4,4,4,4,4,4,4,4,4,1,4,4,4,4,4,4,4,4,4,4,4,1,1,1,4,1,4,4,4,3,2,3,2,3,2,2,2,2,2,2,3,2,2,2,3,3,2,3,2,3,2,2,2,3,2,2,2,3,2,2,2,3,2,2,2,2,2,2,3,3,2,3,2,3,2,2,2,3,2,3,2,3,2,3,2,3,2,2,2,3,2,2,2,2,2,2,3,2,2,2,3,3,2,3,2,3,2,2,2,2,2,2,3,3,2,3,2,3,2,3,2,3,2,2,2,3,2,3,2,3,2,3,2,2,2,2,3,3,2,2,2,4,2,2,2,3,2,2,2,3,3,3,3,3,3,3,3,4,2,2,2,3,2,2,2,3,2,2,2,3,2,2,2,3,2,2,2,3,3,3,3,4,2,2,2,3,2,2,2,4,2,2,2,4,2,2,2,3,2,2,2,3,2,2,2,3,3,3,3,3,3,3,3,4,2,2,2,3,2,2,2,3,3,3,3,4,2,2,2,4,2,2,2,3,2,2,2,4,2,2,2,4,2,2,2,3,3,3,3,3,2,2,2,2,3,3,3,1,3,3,3,1,3,3,1,1,3,3,1,2,3,3,3,1,3,3,3,1,3,3,3,1,3,3,3,1,3,3,3,1,3,3,1,2,3,3,3,1,3,3,3,2,3,3,3,2,3,3,3,1,3,3,3,1,3,3,3,1,3,3,1,1,3,3,1,2,3,3,3,1,3,3,3,1,3,3,1,2,3,3,3,2,3,3,3,1,3,3,3,2,3,3,3,2,3,3,3,1,3,3,1,1,3,3,3,3,4,4,4,3,4,4,4,2,2,2,4,2,2,2,4,3,4,4,4,3,4,4,4,3,4,4,4,3,4,4,4,3,4,4,4,2,2,2,4,3,4,4,4,3,4,4,4,3,4,4,4,3,4,4,4,3,4,4,4,3,4,4,4,2,2,2,4,2,2,2,4,3,4,4,4,3,4,4,4,2,2,2,4,3,4,4,4,3,4,4,4,3,4,4,4,3,4,4,4,3,4,4,4,2,2,2,4,3,4,4,4,4,2,2,2,4,2,2,2,3,3,3,4,3,3,3,4,4,2,2,2,4,2,2,2,4,2,2,2,4,2,2,2,4,2,2,2,3,3,3,4,4,2,2,2,4,2,2,2,4,2,2,2,4,2,2,2,4,2,2,2,4,2,2,2,3,3,3,4,3,3,3,4,4,2,2,2,4,2,2,2,3,3,3,4,4,2,2,2,4,2,2,2,4,2,2,2,4,2,2,2,4,2,2,2,3,3,3,4,4,2,2,2,3,4,3,4,1,4,4,4,1,2,2,4,1,2,2,4,3,4,3,4,1,4,4,4,1,4,4,4,1,4,4,4,1,4,4,4,1,2,2,4,3,4,3,4,1,4,4,4,3,4,3,4,3,4,3,4,1,4,4,4,1,4,4,4,1,2,2,4,1,2,2,4,3,4,3,4,1,4,4,4,1,2,2,4,3,4,3,4,3,4,3,4,1,4,4,4,3,4,3,4,3,4,3,4,1,2,2,4,1,4,4,4,2,2,2,2,1,2,2,2,3,2,2,3,3,2,2,3,2,2,2,2,1,2,2,2,1,2,2,2,1,2,2,2,1,2,2,2,3,2,2,3,2,2,2,2,1,2,2,2,2,2,2,2,2,2,2,2,1,2,2,2,1,2,2,2,3,2,2,3,3,2,2,3,2,2,2,2,1,2,2,2,3,2,2,3,2,2,2,2,2,2,2,2,1,2,2,2,2,2,2,2,2,2,2,2,3,2,2,3,1,2,2,2,2,2,2,2,1,2,2,2,3,4,4,3,3,4,4,3,2,2,2,2,1,2,2,2,1,2,2,2,1,2,2,2,1,2,2,2,3,4,4,3,2,2,2,2,1,2,2,2,2,2,2,2,2,2,2,2,1,2,2,2,1,2,2,2,3,4,4,3,3,4,4,3,2,2,2,2,1,2,2,2,3,4,4,3,2,2,2,2,2,2,2,2,1,2,2,2,2,2,2,2,2,2,2,2,3,4,4,3,1,2,2,2,2,1,2,1,2,1,1,1,3,3,3,3,3,3,3,3,2,1,2,1,2,1,1,1,2,1,1,1,2,1,1,1,2,1,1,1,3,3,3,3,2,1,2,1,2,1,1,1,2,1,2,1,2,1,2,1,2,1,1,1,2,1,1,1,3,3,3,3,3,3,3,3,2,1,2,1,2,1,1,1,3,3,3,3,2,1,2,1,2,1,2,1,2,1,1,1,2,1,2,1,2,1,2,1,3,3,3,3,2,1,1,1,2,1,2,1,3,1,1,1,2,3,3,3,2,3,3,3,2,1,2,1,3,1,1,1,3,1,1,1,3,1,1,1,3,1,1,1,2,3,3,3,2,1,2,1,3,1,1,1,2,1,2,1,2,1,2,1,3,1,1,1,3,1,1,1,2,3,3,3,2,3,3,3,2,1,2,1,3,1,1,1,2,3,3,3,2,1,2,1,2,1,2,1,3,1,1,1,2,1,2,1,2,1,2,1,2,3,3,3,3,1,1,1,4,1,4,1,3,1,1,1,2,1,1,2,2,1,1,2,4,1,4,1,3,1,1,1,3,1,1,1,3,1,1,1,3,1,1,1,2,1,1,2,4,1,4,1,3,1,1,1,4,1,4,1,4,1,4,1,3,1,1,1,3,1,1,1,2,1,1,2,2,1,1,2,4,1,4,1,3,1,1,1,2,1,1,2,4,1,4,1,4,1,4,1,3,1,1,1,4,1,4,1,4,1,4,1,2,1,1,2,3,1,1,1,2,4,4,4,1,4,4,4,2,4,4,4,2,4,4,4,2,4,4,4,1,4,4,4,1,4,4,4,1,4,4,4,1,4,4,4,2,4,4,4,2,4,4,4,1,4,4,4,2,4,4,4,2,4,4,4,1,4,4,4,1,4,4,4,2,4,4,4,2,4,4,4,2,4,4,4,1,4,4,4,2,4,4,4,2,4,4,4,2,4,4,4,1,4,4,4,2,4,4,4,2,4,4,4,2,4,4,4,1,4,4,4,3,1,3,1,3,1,1,1,3,3,3,3,3,3,3,3,3,1,3,1,3,1,1,1,3,1,1,1,3,1,1,1,3,1,1,1,3,3,3,3,3,1,3,1,3,1,1,1,3,1,3,1,3,1,3,1,3,1,1,1,3,1,1,1,3,3,3,3,3,3,3,3,3,1,3,1,3,1,1,1,3,3,3,3,3,1,3,1,3,1,3,1,3,1,1,1,3,1,3,1,3,1,3,1,3,3,3,3,3,1,1,1,2,4,2,4,1,4,4,4,2,2,2,4,2,2,2,4,2,4,2,4,1,4,4,4,1,4,4,4,1,4,4,4,1,4,4,4,2,2,2,4,2,4,2,4,1,4,4,4,2,4,2,4,2,4,2,4,1,4,4,4,1,4,4,4,2,2,2,4,2,2,2,4,2,4,2,4,1,4,4,4,2,2,2,4,2,4,2,4,2,4,2,4,1,4,4,4,2,4,2,4,2,4,2,4,2,2,2,4,1,4,4,4,2,4,4,4,2,4,4,4,3,3,3,4,3,3,3,4,2,4,4,4,2,4,4,4,2,4,4,4,2,4,4,4,2,4,4,4,3,3,3,4,2,4,4,4,2,4,4,4,2,4,4,4,2,4,4,4,2,4,4,4,2,4,4,4,3,3,3,4,3,3,3,4,2,4,4,4,2,4,4,4,3,3,3,4,2,4,4,4,2,4,4,4,2,4,4,4,2,4,4,4,2,4,4,4,3,3,3,4,2,4,4,4,3,2,3,2,3,2,2,2,1,3,3,3,1,3,3,3,3,2,3,2,3,2,2,2,3,2,2,2,3,2,2,2,3,2,2,2,1,3,3,3,3,2,3,2,3,2,2,2,3,2,3,2,3,2,3,2,3,2,2,2,3,2,2,2,1,3,3,3,1,3,3,3,3,2,3,2,3,2,2,2,1,3,3,3,3,2,3,2,3,2,3,2,3,2,2,2,3,2,3,2,3,2,3,2,1,3,3,3,3,2,2,2,2,4,4,4,2,4,4,4,1,1,1,3,1,1,1,3,2,4,4,4,2,4,4,4,2,4,4,4,2,4,4,4,2,4,4,4,1,1,1,3,2,4,4,4,2,4,4,4,2,4,4,4,2,4,4,4,2,4,4,4,2,4,4,4,1,1,1,3,1,1,1,3,2,4,4,4,2,4,4,4,1,1,1,3,2,4,4,4,2,4,4,4,2,4,4,4,2,4,4,4,2,4,4,4,1,1,1,3,2,4,4,4,2,1,2,1,3,1,1,1,3,1,1,1,3,1,1,1,2,1,2,1,3,1,1,1,3,1,1,1,3,1,1,1,3,1,1,1,3,1,1,1,2,1,2,1,3,1,1,1,2,1,2,1,2,1,2,1,3,1,1,1,3,1,1,1,3,1,1,1,3,1,1,1,2,1,2,1,3,1,1,1,3,1,1,1,2,1,2,1,2,1,2,1,3,1,1,1,2,1,2,1,2,1,2,1,3,1,1,1,3,1,1,1,4,1,4,1,1,1,1,1,1,3,3,1,1,3,3,1,4,1,4,1,1,1,1,1,1,1,1,1,1,1,1,1,1,1,1,1,1,3,3,1,4,1,4,1,1,1,1,1,4,1,4,1,4,1,4,1,1,1,1,1,1,1,1,1,1,3,3,1,1,3,3,1,4,1,4,1,1,1,1,1,1,3,3,1,4,1,4,1,4,1,4,1,1,1,1,1,4,1,4,1,4,1,4,1,1,3,3,1,1,1,1,1,3,4,3,4,1,4,4,4,1,2,2,1,1,2,2,1,3,4,3,4,1,4,4,4,1,4,4,4,1,4,4,4,1,4,4,4,1,2,2,1,3,4,3,4,1,4,4,4,3,4,3,4,3,4,3,4,1,4,4,4,1,4,4,4,1,2,2,1,1,2,2,1,3,4,3,4,1,4,4,4,1,2,2,1,3,4,3,4,3,4,3,4,1,4,4,4,3,4,3,4,3,4,3,4,1,2,2,1,1,4,4,4,4,4,4,4,2,4,4,4,2,2,2,3,2,2,2,3,4,4,4,4,2,4,4,4,2,4,4,4,2,4,4,4,2,4,4,4,2,2,2,3,4,4,4,4,2,4,4,4,4,4,4,4,4,4,4,4,2,4,4,4,2,4,4,4,2,2,2,3,2,2,2,3,4,4,4,4,2,4,4,4,2,2,2,3,4,4,4,4,4,4,4,4,2,4,4,4,4,4,4,4,4,4,4,4,2,2,2,3,2,4,4,4,4,1,4,1,1,1,1,1,3,4,4,4,3,4,4,4,4,1,4,1,1,1,1,1,1,1,1,1,1,1,1,1,1,1,1,1,3,4,4,4,4,1,4,1,1,1,1,1,4,1,4,1,4,1,4,1,1,1,1,1,1,1,1,1,3,4,4,4,3,4,4,4,4,1,4,1,1,1,1,1,3,4,4,4,4,1,4,1,4,1,4,1,1,1,1,1,4,1,4,1,4,1,4,1,3,4,4,4,1,1,1,1,3,2,3,2,2,2,2,2,2,3,3,3,2,3,3,3,3,2,3,2,2,2,2,2,2,2,2,2,2,2,2,2,2,2,2,2,2,3,3,3,3,2,3,2,2,2,2,2,3,2,3,2,3,2,3,2,2,2,2,2,2,2,2,2,2,3,3,3,2,3,3,3,3,2,3,2,2,2,2,2,2,3,3,3,3,2,3,2,3,2,3,2,2,2,2,2,3,2,3,2,3,2,3,2,2,3,3,3,2,2,2,2,2,4,2,4,1,4,4,4,1,2,2,4,1,2,2,4,2,4,2,4,1,4,4,4,1,4,4,4,1,4,4,4,1,4,4,4,1,2,2,4,2,4,2,4,1,4,4,4,2,4,2,4,2,4,2,4,1,4,4,4,1,4,4,4,1,2,2,4,1,2,2,4,2,4,2,4,1,4,4,4,1,2,2,4,2,4,2,4,2,4,2,4,1,4,4,4,2,4,2,4,2,4,2,4,1,2,2,4,1,4,4,4,2,1,2,1,2,1,1,1,2,3,3,3,2,3,3,3,2,1,2,1,2,1,1,1,2,1,1,1,2,1,1,1,2,1,1,1,2,3,3,3,2,1,2,1,2,1,1,1,2,1,2,1,2,1,2,1,2,1,1,1,2,1,1,1,2,3,3,3,2,3,3,3,2,1,2,1,2,1,1,1,2,3,3,3,2,1,2,1,2,1,2,1,2,1,1,1,2,1,2,1,2,1,2,1,2,3,3,3,2,1,1,1,4,1,4,1,3,1,1,1,1,1,1,1,1,1,1,1,4,1,4,1,3,1,1,1,3,1,1,1,3,1,1,1,3,1,1,1,1,1,1,1,4,1,4,1,3,1,1,1,4,1,4,1,4,1,4,1,3,1,1,1,3,1,1,1,1,1,1,1,1,1,1,1,4,1,4,1,3,1,1,1,1,1,1,1,4,1,4,1,4,1,4,1,3,1,1,1,4,1,4,1,4,1,4,1,1,1,1,1,3,1,1,1,]);

minShifts = 20;
maxShifts = 20;
minConsecShifts = 2;
maxConsecShifts = 5;

minConsecSameShifts = [1,1,1,1];
maxConsecSameShifts = [7,7,7,7];

minPerShifts = [0,0,0,0];
maxPerShifts = [20,20,20,20];